\ENCODING=ISO-8859-1
\Problem name: 

Minimize
 obj: x1 + x2 + x3 + x4 + x5 + x6 + x7 + x8 + x9 + x10 + x11 + x12 + x13 + x14
      + x15 + x16 + x17 + x18 + x19 + 2 x20 + 2 x21 + 2 x22 + 2 x23 + 2 x24
      + 2 x25 + 2 x26 + 2 x27 + 2 x28 + 2 x29 + 2 x30 + 2 x31 + 2 x32 + 2 x33
      + 2 x34 + 2 x35 + 2 x36 + 2 x37 + 2 x38 + 2 x39 + 2 x40 + 3 x41 + 3 x42
      + 3 x43 + 3 x44 + 3 x45 + 3 x46 + 3 x47 + 3 x48 + 3 x49 + 3 x50 + 3 x51
      + 3 x52 + 3 x53 + 3 x54 + 3 x55 + 3 x56 + 3 x57 + 3 x58 + 3 x59 + 3 x60
      + 4 x61 + 4 x62 + 4 x63 + 4 x64 + 4 x65 + 4 x66 + 4 x67 + 4 x68 + 4 x69
      + 4 x70 + 4 x71 + 4 x72 + 4 x73 + 4 x74 + 4 x75 + 4 x76 + 4 x77 + 5 x78
      + 5 x79 + 5 x80 + 5 x81 + 5 x82 + 5 x83 + 5 x84 + 5 x85 + 5 x86 + 5 x87
      + 5 x88 + 5 x89 + 5 x90 + 5 x91 + 5 x92 + 5 x93 + 5 x94 + 6 x95 + 6 x96
      + 6 x97 + 6 x98 + 6 x99 + 6 x100 + 6 x101 + 6 x102 + 7 x103 + 7 x104
      + 7 x105 + 7 x106 + 7 x107 + 7 x108 + 7 x109 + 7 x110 + 7 x111 + 7 x112
      + 7 x113 + 7 x114 + 7 x115 + 7 x116 + 8 x117 + 8 x118 + 8 x119 + 8 x120
      + 8 x121 + 8 x122 + 8 x123 + 8 x124 + 8 x125 + 8 x126 + 8 x127 + 9 x128
      + 9 x129 + 9 x130 + 9 x131 + 9 x132 + 9 x133 + 9 x134 + 9 x135 + 9 x136
      + 9 x137 + 9 x138 + 9 x139 + 9 x140 + 9 x141 + 10 x142 + 10 x143
      + 10 x144 + 10 x145 + 10 x146 + 10 x147 + 10 x148 + 10 x149 + 10 x150
      + 11 x151 + 11 x152 + 11 x153 + 11 x154 + 12 x155 + 12 x156 + 12 x157
      + 12 x158 + 12 x159 + 12 x160 + 12 x161 + 12 x162 + 12 x163 + 12 x164
      + 12 x165 + 12 x166 + 12 x167 + 12 x168 + 12 x169 + 13 x170 + 13 x171
      + 13 x172 + 14 x173 + 14 x174 + 14 x175 + 14 x176 + 14 x177 + 15 x178
      + 15 x179 + 15 x180 + 15 x181 + 16 x182 + 16 x183 + 16 x184 + 17 x185
      + 18 x186 + 19 x187 + 19 x188 + 19 x189 + 20 x190 + 20 x191 + 20 x192
      + 21 x193 + 21 x194 + 22 x195 + 24 x196 + 27 x197
Subject To
 c1:   x32 + x63 + x83 + x95 >= 1
 c2:   x14 + x113 + x126 + x151 >= 1
 c3:   x44 + x120 + x137 + x146 + x158 >= 1
 c4:   x2 + x53 + x78 + x82 + x125 + x193 >= 1
 c5:   x67 + x69 + x75 + x134 + x143 + x158 + x164 + x171 >= 1
 c6:   x24 + x28 >= 1
 c7:   x42 + x45 + x74 + x192 >= 1
 c8:   x1 + x2 + x15 >= 1
 c9:   x81 + x98 + x127 + x183 >= 1
 c10:  x20 + x79 + x95 + x128 + x133 + x163 >= 1
 c11:  x57 + x62 + x78 + x118 + x135 + x151 + x180 + x196 >= 1
 c12:  x61 + x83 + x161 + x164 + x169 >= 1
 c13:  x13 + x47 + x62 + x77 + x123 + x145 >= 1
 c14:  x3 + x49 + x53 + x112 + x147 >= 1
 c15:  x15 + x80 + x107 + x153 >= 1
 c16:  x34 + x105 + x160 >= 1
 c17:  x4 + x16 + x147 + x171 + x184 >= 1
 c18:  x20 + x51 + x63 + x97 + x101 + x154 + x158 + x173 >= 1
 c19:  x22 + x27 + x103 + x137 + x151 + x165 + x197 >= 1
 c20:  x45 + x65 + x66 + x178 + x191 >= 1
 c21:  x28 + x70 + x76 + x120 + x190 + x196 >= 1
 c22:  x31 + x98 + x130 + x145 + x152 + x170 + x182 + x186 >= 1
 c23:  x27 + x53 + x61 + x91 + x92 + x156 + x159 + x190 >= 1
 c24:  x10 + x46 + x78 + x99 + x138 + x174 + x187 + x193 >= 1
 c25:  x65 + x76 + x105 + x136 + x139 + x190 >= 1
 c26:  x17 + x25 + x34 + x83 + x107 + x173 >= 1
 c27:  x94 + x148 + x183 >= 1
 c28:  x70 + x134 + x172 >= 1
 c29:  x68 + x142 + x178 >= 1
 c30:  x7 + x21 + x30 + x79 + x109 + x152 + x165 + x178 >= 1
 c31:  x1 + x68 + x150 + x156 + x157 >= 1
 c32:  x16 + x17 + x40 + x77 + x80 + x117 + x164 + x165 + x184 + x186 >= 1
 c33:  x73 + x195 + x196 >= 1
 c34:  x32 + x93 + x142 >= 1
 c35:  x16 + x20 >= 1
 c36:  x62 + x72 >= 1
 c37:  x18 >= 1
 c38:  x13 + x67 + x101 + x113 + x172 + x175 >= 1
 c39:  x5 + x61 + x89 + x108 + x111 + x154 + x185 >= 1
 c40:  x11 + x45 + x48 + x59 + x67 + x96 + x133 + x158 >= 1
 c41:  x38 + x43 + x71 + x131 >= 1
 c42:  x26 + x31 + x153 + x163 >= 1
 c43:  x22 + x32 + x61 + x103 + x115 + x124 + x137 + x155 >= 1
 c44:  x74 + x118 + x128 + x137 + x149 + x185 + x186 >= 1
 c45:  x140 + x141 + x149 >= 1
 c46:  x28 + x82 + x151 + x175 >= 1
 c47:  x110 + x155 + x167 + x172 + x187 >= 1
 c48:  x108 + x136 + x190 >= 1
 c49:  x2 + x25 + x120 >= 1
 c50:  x52 + x61 + x63 + x89 + x114 + x118 + x167 + x182 + x190 >= 1
 c51:  x12 + x23 + x44 >= 1
 c52:  x2 + x6 + x26 + x42 >= 1
 c53:  x65 + x97 + x116 + x121 + x148 + x174 >= 1
 c54:  x4 + x27 + x65 + x148 + x167 >= 1
 c55:  x106 + x129 + x153 + x157 + x158 >= 1
 c56:  x34 + x64 + x95 + x161 >= 1
 c57:  x18 + x35 + x42 + x68 + x70 + x84 + x129 + x157 >= 1
 c58:  x11 + x30 + x90 + x95 + x119 + x196 >= 1
 c59:  x9 + x10 + x23 + x160 >= 1
 c60:  x11 + x36 + x51 + x75 + x81 >= 1
 c61:  x23 + x27 + x62 + x90 >= 1
 c62:  x21 + x82 + x83 + x90 + x106 + x120 + x142 + x186 >= 1
 c63:  x44 + x164 + x168 >= 1
 c64:  x8 + x137 + x143 + x146 >= 1
 c65:  x61 + x63 + x132 + x191 >= 1
 c66:  x24 + x80 + x103 + x128 + x188 >= 1
 c67:  x1 + x66 >= 1
 c68:  x48 + x84 + x113 + x118 + x138 + x154 + x156 + x157 + x180 + x197 >= 1
 c69:  x20 + x33 + x96 + x98 + x121 + x142 >= 1
 c70:  x43 + x79 + x82 + x98 + x100 >= 1
 c71:  x12 + x52 + x123 + x132 + x170 >= 1
 c72:  x42 + x132 + x135 + x145 >= 1
 c73:  x44 + x54 + x176 >= 1
 c74:  x13 + x95 + x119 + x121 + x171 + x180 + x195 + x196 >= 1
 c75:  x29 + x136 + x175 >= 1
 c76:  x57 + x81 + x107 + x136 + x144 + x152 + x155 >= 1
 c77:  x173 + x183 + x185 + x189 + x192 + x197 >= 1
 c78:  x9 + x21 + x56 + x72 + x89 >= 1
 c79:  x3 + x136 + x153 + x161 >= 1
 c80:  x7 + x82 + x97 + x155 >= 1
 c81:  x110 + x141 + x170 + x171 + x188 + x193 + x194 >= 1
 c82:  x25 + x42 + x156 + x187 >= 1
 c83:  x83 + x105 + x131 + x166 + x187 >= 1
 c84:  x5 + x62 + x69 + x117 >= 1
 c85:  x29 + x124 + x143 + x145 + x179 >= 1
 c86:  x23 + x35 + x40 + x78 >= 1
 c87:  x31 + x96 + x103 + x144 + x146 + x149 + x166 + x191 + x196 >= 1
 c88:  x33 + x35 + x126 + x132 + x139 >= 1
 c89:  x78 + x122 + x129 + x193 >= 1
 c90:  x2 + x20 + x64 >= 1
 c91:  x47 + x100 + x144 + x158 + x182 + x185 >= 1
 c92:  x51 + x91 + x99 + x119 + x121 + x127 + x179 >= 1
 c93:  x43 + x81 + x99 + x187 >= 1
 c94:  x14 + x117 + x175 >= 1
 c95:  x26 + x51 + x85 + x181 + x183 + x195 >= 1
 c96:  x22 + x23 + x42 + x55 + x68 + x173 >= 1
 c97:  x28 + x73 + x99 + x170 + x193 + x196 >= 1
 c98:  x85 + x187 >= 1
 c99:  x41 + x46 >= 1
 c100: x8 + x80 + x86 + x130 + x156 >= 1
 c101: x3 + x63 + x132 + x146 >= 1
 c102: x48 + x128 + x130 + x177 + x195 >= 1
 c103: x145 + x150 >= 1
 c104: x10 + x22 + x43 + x54 + x104 + x171 >= 1
 c105: x5 + x144 >= 1
 c106: x24 + x39 + x64 + x88 + x144 + x181 >= 1
 c107: x41 + x87 + x184 >= 1
 c108: x1 + x28 + x41 + x63 + x68 + x134 + x159 >= 1
 c109: x10 + x73 + x100 + x121 + x155 + x180 >= 1
 c110: x77 + x159 + x174 + x176 >= 1
 c111: x25 + x122 + x134 >= 1
 c112: x84 + x125 + x156 + x190 >= 1
 c113: x33 + x122 + x184 >= 1
 c114: x24 + x88 >= 1
 c115: x8 + x94 >= 1
 c116: x71 + x192 >= 1
 c117: x126 + x169 + x180 + x184 + x197 >= 1
 c118: x23 + x79 + x111 + x129 + x131 + x147 + x160 >= 1
 c119: x177 + x181 + x187 + x188 + x196 >= 1
 c120: x114 + x186 + x193 >= 1
 c121: x30 + x38 + x81 + x135 + x165 >= 1
 c122: x29 + x103 + x196 >= 1
 c123: x47 + x78 + x129 + x133 + x138 + x195 >= 1
 c124: x13 + x67 + x79 + x104 + x117 + x139 + x171 >= 1
 c125: x21 + x72 + x107 + x163 + x167 >= 1
 c126: x113 + x170 + x179 >= 1
 c127: x37 + x61 + x79 + x98 + x160 + x178 >= 1
 c128: x86 + x102 + x131 + x179 + x182 + x191 >= 1
 c129: x46 + x111 + x119 + x122 + x131 + x139 + x152 + x195 >= 1
 c130: x109 + x123 + x128 + x138 + x144 + x156 >= 1
 c131: x75 + x78 + x119 + x155 + x167 >= 1
 c132: x60 + x80 + x133 + x195 >= 1
 c133: x27 + x106 + x110 >= 1
 c134: x41 + x50 + x55 + x56 + x188 >= 1
 c135: x22 + x43 + x46 + x70 + x93 + x112 + x189 >= 1
 c136: x20 + x44 + x97 + x124 + x186 >= 1
 c137: x3 + x42 + x78 + x181 >= 1
 c138: x6 + x117 + x155 + x191 >= 1
 c139: x50 + x66 + x166 + x194 >= 1
 c140: x3 + x66 + x143 + x188 >= 1
 c141: x31 + x57 + x193 >= 1
 c142: x24 + x62 + x64 + x81 + x125 + x143 + x159 + x172 >= 1
 c143: x76 + x132 + x135 + x178 + x184 >= 1
 c144: x112 + x119 + x128 + x193 >= 1
 c145: x15 + x21 + x49 >= 1
 c146: x26 + x87 + x105 + x194 >= 1
 c147: x41 + x61 + x84 + x92 + x97 + x142 + x152 >= 1
 c148: x46 + x62 + x103 + x130 + x153 + x155 + x169 >= 1
 c149: x6 + x69 + x73 + x166 + x190 >= 1
 c150: x6 + x70 + x95 + x129 + x162 >= 1
 c151: x49 + x117 + x130 + x149 >= 1
 c152: x35 + x75 + x96 + x109 + x183 >= 1
 c153: x58 + x92 + x189 >= 1
 c154: x14 + x21 >= 1
 c155: x37 + x41 + x43 + x85 + x105 + x168 + x181 >= 1
 c156: x37 + x151 >= 1
 c157: x41 + x88 >= 1
 c158: x5 + x12 + x34 + x90 + x96 + x134 >= 1
 c159: x48 + x71 + x78 + x87 + x108 + x117 >= 1
 c160: x44 + x49 + x59 + x67 + x84 + x120 + x127 + x161 >= 1
 c161: x7 + x8 + x88 + x195 >= 1
 c162: x9 + x33 + x55 + x81 + x86 + x109 >= 1
 c163: x50 + x65 + x81 + x161 + x162 + x194 >= 1
 c164: x19 + x142 + x147 + x179 >= 1
 c165: x1 + x103 + x151 >= 1
 c166: x1 + x9 + x22 + x41 + x80 + x106 + x130 >= 1
 c167: x4 + x69 + x89 + x128 + x159 + x187 >= 1
 c168: x25 + x93 + x95 + x123 + x157 + x197 >= 1
 c169: x12 + x85 + x86 + x104 + x122 + x164 >= 1
 c170: x20 + x80 + x162 + x168 >= 1
 c171: x45 + x72 + x155 + x157 + x166 >= 1
 c172: x54 + x96 + x115 + x125 >= 1
 c173: x36 + x129 + x179 + x188 + x189 >= 1
 c174: x7 + x86 + x107 >= 1
 c175: x29 + x66 + x78 + x182 >= 1
 c176: x8 + x24 + x108 + x135 >= 1
 c177: x4 + x64 + x87 + x104 >= 1
 c178: x42 + x45 + x83 + x124 + x157 + x174 + x195 >= 1
 c179: x74 + x85 + x101 + x116 + x133 + x168 + x173 + x185 >= 1
 c180: x25 + x32 + x104 + x152 + x163 + x182 >= 1
 c181: x143 + x146 + x160 + x163 + x176 >= 1
 c182: x7 + x26 + x82 + x174 >= 1
 c183: x50 + x76 + x81 + x104 + x111 + x120 + x191 >= 1
 c184: x39 + x74 + x79 + x142 + x174 >= 1
 c185: x3 + x21 + x151 >= 1
 c186: x47 + x58 + x142 + x163 + x177 >= 1
 c187: x56 + x102 + x148 + x154 + x159 + x168 + x178 + x186 + x189 >= 1
 c188: x71 + x95 + x103 + x140 + x162 + x176 + x189 + x193 >= 1
 c189: x80 + x97 + x104 + x190 >= 1
 c190: x5 + x112 >= 1
 c191: x30 + x47 + x79 + x143 + x161 >= 1
 c192: x60 + x64 + x91 + x95 + x173 + x186 >= 1
 c193: x11 + x36 + x69 + x131 >= 1
 c194: x4 + x45 + x98 >= 1
 c195: x2 + x170 >= 1
 c196: x6 + x61 + x118 + x178 >= 1
 c197: x52 + x80 + x183 + x190 + x197 >= 1
 c198: x115 + x118 + x147 + x162 + x191 >= 1
 c199: x150 + x154 + x160 + x162 + x165 + x175 + x194 >= 1
 c200: x79 + x106 + x110 + x114 >= 1
Bounds
 0 <= x1 <= 1
 0 <= x2 <= 1
 0 <= x3 <= 1
 0 <= x4 <= 1
 0 <= x5 <= 1
 0 <= x6 <= 1
 0 <= x7 <= 1
 0 <= x8 <= 1
 0 <= x9 <= 1
 0 <= x10 <= 1
 0 <= x11 <= 1
 0 <= x12 <= 1
 0 <= x13 <= 1
 0 <= x14 <= 1
 0 <= x15 <= 1
 0 <= x16 <= 1
 0 <= x17 <= 1
 0 <= x18 <= 1
 0 <= x19 <= 1
 0 <= x20 <= 1
 0 <= x21 <= 1
 0 <= x22 <= 1
 0 <= x23 <= 1
 0 <= x24 <= 1
 0 <= x25 <= 1
 0 <= x26 <= 1
 0 <= x27 <= 1
 0 <= x28 <= 1
 0 <= x29 <= 1
 0 <= x30 <= 1
 0 <= x31 <= 1
 0 <= x32 <= 1
 0 <= x33 <= 1
 0 <= x34 <= 1
 0 <= x35 <= 1
 0 <= x36 <= 1
 0 <= x37 <= 1
 0 <= x38 <= 1
 0 <= x39 <= 1
 0 <= x40 <= 1
 0 <= x41 <= 1
 0 <= x42 <= 1
 0 <= x43 <= 1
 0 <= x44 <= 1
 0 <= x45 <= 1
 0 <= x46 <= 1
 0 <= x47 <= 1
 0 <= x48 <= 1
 0 <= x49 <= 1
 0 <= x50 <= 1
 0 <= x51 <= 1
 0 <= x52 <= 1
 0 <= x53 <= 1
 0 <= x54 <= 1
 0 <= x55 <= 1
 0 <= x56 <= 1
 0 <= x57 <= 1
 0 <= x58 <= 1
 0 <= x59 <= 1
 0 <= x60 <= 1
 0 <= x61 <= 1
 0 <= x62 <= 1
 0 <= x63 <= 1
 0 <= x64 <= 1
 0 <= x65 <= 1
 0 <= x66 <= 1
 0 <= x67 <= 1
 0 <= x68 <= 1
 0 <= x69 <= 1
 0 <= x70 <= 1
 0 <= x71 <= 1
 0 <= x72 <= 1
 0 <= x73 <= 1
 0 <= x74 <= 1
 0 <= x75 <= 1
 0 <= x76 <= 1
 0 <= x77 <= 1
 0 <= x78 <= 1
 0 <= x79 <= 1
 0 <= x80 <= 1
 0 <= x81 <= 1
 0 <= x82 <= 1
 0 <= x83 <= 1
 0 <= x84 <= 1
 0 <= x85 <= 1
 0 <= x86 <= 1
 0 <= x87 <= 1
 0 <= x88 <= 1
 0 <= x89 <= 1
 0 <= x90 <= 1
 0 <= x91 <= 1
 0 <= x92 <= 1
 0 <= x93 <= 1
 0 <= x94 <= 1
 0 <= x95 <= 1
 0 <= x96 <= 1
 0 <= x97 <= 1
 0 <= x98 <= 1
 0 <= x99 <= 1
 0 <= x100 <= 1
 0 <= x101 <= 1
 0 <= x102 <= 1
 0 <= x103 <= 1
 0 <= x104 <= 1
 0 <= x105 <= 1
 0 <= x106 <= 1
 0 <= x107 <= 1
 0 <= x108 <= 1
 0 <= x109 <= 1
 0 <= x110 <= 1
 0 <= x111 <= 1
 0 <= x112 <= 1
 0 <= x113 <= 1
 0 <= x114 <= 1
 0 <= x115 <= 1
 0 <= x116 <= 1
 0 <= x117 <= 1
 0 <= x118 <= 1
 0 <= x119 <= 1
 0 <= x120 <= 1
 0 <= x121 <= 1
 0 <= x122 <= 1
 0 <= x123 <= 1
 0 <= x124 <= 1
 0 <= x125 <= 1
 0 <= x126 <= 1
 0 <= x127 <= 1
 0 <= x128 <= 1
 0 <= x129 <= 1
 0 <= x130 <= 1
 0 <= x131 <= 1
 0 <= x132 <= 1
 0 <= x133 <= 1
 0 <= x134 <= 1
 0 <= x135 <= 1
 0 <= x136 <= 1
 0 <= x137 <= 1
 0 <= x138 <= 1
 0 <= x139 <= 1
 0 <= x140 <= 1
 0 <= x141 <= 1
 0 <= x142 <= 1
 0 <= x143 <= 1
 0 <= x144 <= 1
 0 <= x145 <= 1
 0 <= x146 <= 1
 0 <= x147 <= 1
 0 <= x148 <= 1
 0 <= x149 <= 1
 0 <= x150 <= 1
 0 <= x151 <= 1
 0 <= x152 <= 1
 0 <= x153 <= 1
 0 <= x154 <= 1
 0 <= x155 <= 1
 0 <= x156 <= 1
 0 <= x157 <= 1
 0 <= x158 <= 1
 0 <= x159 <= 1
 0 <= x160 <= 1
 0 <= x161 <= 1
 0 <= x162 <= 1
 0 <= x163 <= 1
 0 <= x164 <= 1
 0 <= x165 <= 1
 0 <= x166 <= 1
 0 <= x167 <= 1
 0 <= x168 <= 1
 0 <= x169 <= 1
 0 <= x170 <= 1
 0 <= x171 <= 1
 0 <= x172 <= 1
 0 <= x173 <= 1
 0 <= x174 <= 1
 0 <= x175 <= 1
 0 <= x176 <= 1
 0 <= x177 <= 1
 0 <= x178 <= 1
 0 <= x179 <= 1
 0 <= x180 <= 1
 0 <= x181 <= 1
 0 <= x182 <= 1
 0 <= x183 <= 1
 0 <= x184 <= 1
 0 <= x185 <= 1
 0 <= x186 <= 1
 0 <= x187 <= 1
 0 <= x188 <= 1
 0 <= x189 <= 1
 0 <= x190 <= 1
 0 <= x191 <= 1
 0 <= x192 <= 1
 0 <= x193 <= 1
 0 <= x194 <= 1
 0 <= x195 <= 1
 0 <= x196 <= 1
 0 <= x197 <= 1
Binaries
 x1  x2  x3  x4  x5  x6  x7  x8  x9  x10  x11  x12  x13  x14  x15  x16  x17 
 x18  x19  x20  x21  x22  x23  x24  x25  x26  x27  x28  x29  x30  x31  x32 
 x33  x34  x35  x36  x37  x38  x39  x40  x41  x42  x43  x44  x45  x46  x47 
 x48  x49  x50  x51  x52  x53  x54  x55  x56  x57  x58  x59  x60  x61  x62 
 x63  x64  x65  x66  x67  x68  x69  x70  x71  x72  x73  x74  x75  x76  x77 
 x78  x79  x80  x81  x82  x83  x84  x85  x86  x87  x88  x89  x90  x91  x92 
 x93  x94  x95  x96  x97  x98  x99  x100  x101  x102  x103  x104  x105  x106 
 x107  x108  x109  x110  x111  x112  x113  x114  x115  x116  x117  x118  x119 
 x120  x121  x122  x123  x124  x125  x126  x127  x128  x129  x130  x131  x132 
 x133  x134  x135  x136  x137  x138  x139  x140  x141  x142  x143  x144  x145 
 x146  x147  x148  x149  x150  x151  x152  x153  x154  x155  x156  x157  x158 
 x159  x160  x161  x162  x163  x164  x165  x166  x167  x168  x169  x170  x171 
 x172  x173  x174  x175  x176  x177  x178  x179  x180  x181  x182  x183  x184 
 x185  x186  x187  x188  x189  x190  x191  x192  x193  x194  x195  x196  x197 
End
